(set-info :smt-lib-version 2.6)
(set-logic UFNIA)
(set-info :source |
Generated by: Geoff Sutcliffe
Generated on: 2026-03-11
Generator: TPTPWorld
Application: Benchmarking automated theorem provers
Time limit: 120.0

These benchmarks are translations from the TPTP Library (Thousands of
Problems for Theorem Provers), see http://www.cs.miami.edu/~tptp/

The TPTP is maintained by Geoff Sutcliffe, and he contributed this
selection of benchmarks to SMT-LIB.  They were exported from the
v9.2.1 realease of TPTP.
|)
(set-info :category "industrial")
(set-info :status unknown)
; SZS status Success
(declare-sort $$unsorted 0)
(declare-fun tptp.v0 (Int Int Int) Int)
(declare-fun tptp.w0 (Int) Int)
(declare-fun tptp.i1 () Int)
(declare-fun tptp.v1 (Int Int Int) Int)
(declare-fun tptp.w1 (Int) Int)
(declare-fun tptp.u1 (Int Int Int) Int)
(declare-fun tptp.i0 () Int)
(declare-fun tptp.h1 (Int) Int)
(declare-fun tptp.u0 (Int Int Int) Int)
(declare-fun tptp.f0 (Int Int) Int)
(declare-fun tptp.j0 () Int)
(declare-fun tptp.g0 (Int Int) Int)
(declare-fun tptp.j1 () Int)
(declare-fun tptp.fast (Int) Int)
(declare-fun tptp.f1 (Int Int) Int)
(declare-fun tptp.h0 (Int) Int)
(declare-fun tptp.g1 (Int) Int)
(declare-fun tptp.small (Int) Int)
(assert (forall ((X Int) (Y Int)) (= (tptp.f0 X Y) (+ (+ X X) Y))))
(assert (forall ((X Int) (Y Int)) (= (tptp.g0 X Y) (* 2 (+ (+ X Y) Y)))))
(assert (forall ((X Int)) (= (tptp.h0 X) X)))
(assert (= tptp.i0 1))
(assert (= tptp.j0 2))
(assert (forall ((X Int) (Y Int) (Z Int)) (let ((_let_1 (- X 1))) (let ((_let_2 (tptp.u0 X Y Z))) (let ((_let_3 (<= X 0))) (and (=> _let_3 (= _let_2 Y)) (=> (not _let_3) (= _let_2 (tptp.f0 (tptp.u0 _let_1 Y Z) (tptp.v0 _let_1 Y Z))))))))))
(assert (forall ((X Int) (Y Int) (Z Int)) (let ((_let_1 (- X 1))) (let ((_let_2 (tptp.v0 X Y Z))) (let ((_let_3 (<= X 0))) (and (=> _let_3 (= _let_2 Z)) (=> (not _let_3) (= _let_2 (tptp.g0 (tptp.u0 _let_1 Y Z) (tptp.v0 _let_1 Y Z))))))))))
(assert (forall ((X Int)) (= (tptp.w0 X) (tptp.u0 (tptp.h0 X) tptp.i0 tptp.j0))))
(assert (forall ((X Int)) (= (tptp.small X) (tptp.w0 X))))
(assert (forall ((X Int) (Y Int)) (= (tptp.f1 X Y) (* 2 (* (+ 1 2) (- X Y))))))
(assert (forall ((X Int)) (= (tptp.g1 X) X)))
(assert (forall ((X Int)) (= (tptp.h1 X) (- X 1))))
(assert (= tptp.i1 (+ 2 2)))
(assert (= tptp.j1 1))
(assert (forall ((X Int) (Y Int) (Z Int)) (let ((_let_1 (- X 1))) (let ((_let_2 (tptp.u1 X Y Z))) (let ((_let_3 (<= X 0))) (and (=> _let_3 (= _let_2 Y)) (=> (not _let_3) (= _let_2 (tptp.f1 (tptp.u1 _let_1 Y Z) (tptp.v1 _let_1 Y Z))))))))))
(assert (forall ((X Int) (Y Int) (Z Int)) (let ((_let_1 (tptp.v1 X Y Z))) (let ((_let_2 (<= X 0))) (and (=> _let_2 (= _let_1 Z)) (=> (not _let_2) (= _let_1 (tptp.g1 (tptp.u1 (- X 1) Y Z)))))))))
(assert (forall ((X Int)) (= (tptp.w1 X) (tptp.u1 (tptp.h1 X) tptp.i1 tptp.j1))))
(assert (forall ((X Int)) (let ((_let_1 (tptp.fast X))) (let ((_let_2 (<= X 0))) (and (=> _let_2 (= _let_1 1)) (=> (not _let_2) (= _let_1 (tptp.w1 X))))))))
(assert (not (not (exists ((C Int)) (and (>= C 0) (not (= (tptp.small C) (tptp.fast C))))))))
(check-sat)
(exit)
